tsp_instances/TSP50/instance95.tsp
NODE_COORD_SECTION
0 144 26
1 196 10
2 120 28
3 81 85
4 78 142
5 170 89
6 97 197
7 76 121
8 92 28
9 6 156
10 81 139
11 85 56
12 63 13
13 58 6
14 174 195
15 189 1
16 22 123
17 27 138
18 18 176
19 81 190
20 134 36
21 141 103
22 88 69
23 152 36
24 188 67
25 38 7
26 66 71
27 68 2
28 87 8
29 124 9
30 91 57
31 113 130
32 9 64
33 198 110
34 149 3
35 107 47
36 31 72
37 67 57
38 114 110
39 162 124
40 157 125
41 119 187
42 48 160
43 187 163
44 135 69
45 23 39
46 103 58
47 10 114
48 159 92
49 189 144
