tsp_instances/TSP50/instance95.opt.tour
TOUR_SECTION
1
21
3
30
35
16
2
25
6
49
22
41
40
34
50
44
15
42
7
20
43
19
10
18
17
48
37
33
46
26
14
13
28
29
9
36
47
31
12
38
27
23
4
8
5
11
32
39
45
24
-1